datasets/2-dimensional/CL_01_25_06.vbp
2
1000 1000 
25
139 110 30
353 388 72
285 367 4
303 314 88
272 297 54
160 182 64
334 236 90
359 225 26
203 315 94
232 175 28
313 169 72
113 166 49
298 131 54
135 132 19
191 334 28
232 105 61
125 111 84
136 220 23
333 396 67
281 109 53
249 123 54
301 105 16
306 123 9
229 343 54
137 132 77
