datasets/2-dimensional-benchmark/CL_01_25_06.txt
1000 1000 
0 30 139 110 
1 72 353 388 
2 4 285 367 
3 88 303 314 
4 54 272 297 
5 64 160 182 
6 90 334 236 
7 26 359 225 
8 94 203 315 
9 28 232 175 
10 72 313 169 
11 49 113 166 
12 54 298 131 
13 19 135 132 
14 28 191 334 
15 61 232 105 
16 84 125 111 
17 23 136 220 
18 67 333 396 
19 53 281 109 
20 54 249 123 
21 16 301 105 
22 9 306 123 
23 54 229 343 
24 77 137 132 
